
Gurobi 5.5.0 (linux64) logging started Thu Jun 26 09:38:20 2014


Gurobi 5.5.0 (linux64) logging started Thu Jun 26 09:41:59 2014


Gurobi 5.5.0 (linux64) logging started Thu Jun 26 09:42:27 2014


Gurobi 5.5.0 (linux64) logging started Thu Jun 26 09:45:11 2014


Gurobi 5.5.0 (linux64) logging started Thu Jun 26 09:46:16 2014

